16
Properties=species:S:1:pos:R:3 pbc="F F F"
O        3.07700000      -1.28870000       0.00050000
O        3.25990000       0.96180000      -0.00060000
O       -3.90180000      -0.62550000       0.00000000
C        1.08370000       0.00600000       0.00070000
C       -1.69680000       0.23240000      -0.00100000
C        0.48650000       1.26660000       0.00050000
C        0.29060000      -1.14130000       0.00000000
C       -0.90380000       1.37980000      -0.00020000
C       -1.09970000      -1.02830000      -0.00080000
C        2.55060000      -0.11320000       0.00000000
C       -3.14610000       0.35040000       0.00100000
H        1.07800000       2.17810000       0.00080000
H        0.72700000      -2.13650000       0.00000000
H       -1.35450000       2.36890000       0.00020000
H       -1.69800000      -1.93560000      -0.00100000
H       -3.55980000       1.37320000       0.00250000
