18
Properties=species:S:1:pos:R:3 pbc="F F F"
Ti       0.00000000       0.00000000       0.00000000
Ti       3.00000000       0.00000000       0.00000000
Ti       6.00000000       0.00000000       0.00000000
C        1.50000000       0.00000000      -1.00000000
C        4.50000000       0.00000000      -1.00000000
O        0.00000000       0.00000000       1.50000000
O        6.00000000       0.00000000       1.50000000
H        0.00000000       0.00000000       2.50000000
H        6.00000000       0.00000000       2.50000000
B        3.00000000       0.00000000       4.00000000
O        2.20000000       1.00000000       4.50000000
O        3.80000000      -1.00000000       4.50000000
C        3.00000000       1.50000000       2.80000000
H        1.50000000       1.00000000       5.20000000
H        4.50000000      -1.00000000       5.20000000
H        2.00000000       2.00000000       2.80000000
H        4.00000000       2.00000000       2.80000000
H        3.00000000       2.50000000       2.80000000
