15
Properties=species:S:1:pos:R:3 pbc="F F F"
B        0.00000000       0.00000000       0.00000000
O       -1.20000000       0.80000000       0.00000000
O       -1.20000000      -0.80000000       0.00000000
C        1.50000000       0.00000000       0.00000000
H        2.10000000       0.90000000       0.00000000
H        2.10000000      -0.90000000       0.00000000
H        2.10000000       0.00000000       0.90000000
H       -1.90000000       0.80000000       0.00000000
H       -1.90000000      -0.80000000       0.00000000
C       -3.00000000       2.00000000       0.00000000
C       -4.20000000       1.80000000       0.00000000
O       -2.80000000       3.10000000       0.00000000
O       -5.40000000       1.60000000       0.00000000
H       -3.50000000       3.30000000       0.00000000
H       -6.10000000       1.40000000       0.00000000
