70
Lattice="8.485281374238571 0.0 0.0 4.242640687119286 7.348469228349534 0.0 0.0 0.0 26.92820323027551" Properties=species:S:1:pos:R:3:tags:I:1 pbc="T T F"
Ti       0.00000000       0.00000000      10.00000000        4
Ti       2.82842712       0.00000000      10.00000000        4
Ti       5.65685425       0.00000000      10.00000000        4
Ti       1.41421356       2.44948974      10.00000000        4
Ti       4.24264069       2.44948974      10.00000000        4
Ti       7.07106781       2.44948974      10.00000000        4
Ti       2.82842712       4.89897949      10.00000000        4
Ti       5.65685425       4.89897949      10.00000000        4
Ti       8.48528137       4.89897949      10.00000000        4
Ti       1.41421356       0.81649658      12.30940108        3
Ti       4.24264069       0.81649658      12.30940108        3
Ti       7.07106781       0.81649658      12.30940108        3
Ti       2.82842712       3.26598632      12.30940108        3
Ti       5.65685425       3.26598632      12.30940108        3
Ti       8.48528137       3.26598632      12.30940108        3
Ti       4.24264069       5.71547607      12.30940108        3
Ti       7.07106781       5.71547607      12.30940108        3
Ti       9.89949494       5.71547607      12.30940108        3
Ti       0.00000000       1.63299316      14.61880215        2
Ti       2.82842712       1.63299316      14.61880215        2
Ti       5.65685425       1.63299316      14.61880215        2
Ti       1.41421356       4.08248290      14.61880215        2
Ti       4.24264069       4.08248290      14.61880215        2
Ti       7.07106781       4.08248290      14.61880215        2
Ti       2.82842712       6.53197265      14.61880215        2
Ti       5.65685425       6.53197265      14.61880215        2
Ti       8.48528137       6.53197265      14.61880215        2
Ti       0.00000000       0.00000000      16.92820323        1
Ti       2.82842712       0.00000000      16.92820323        1
Ti       5.65685425       0.00000000      16.92820323        1
Ti       1.41421356       2.44948974      16.92820323        1
Ti       4.24264069       2.44948974      16.92820323        1
Ti       7.07106781       2.44948974      16.92820323        1
Ti       2.82842712       4.89897949      16.92820323        1
Ti       5.65685425       4.89897949      16.92820323        1
Ti       8.48528137       4.89897949      16.92820323        1
O        0.00000000       0.00000000      18.92820323        0
H        0.00000000       0.00000000      19.92820323        0
O        0.00000000       1.33333333      18.92820323        0
H        0.00000000       1.33333333      19.92820323        0
O        0.00000000       2.66666667      18.92820323        0
H        0.00000000       2.66666667      19.92820323        0
O        1.33333333       0.00000000      18.92820323        0
H        1.33333333       0.00000000      19.92820323        0
O        1.33333333       1.33333333      18.92820323        0
H        1.33333333       1.33333333      19.92820323        0
O        1.33333333       2.66666667      18.92820323        0
H        1.33333333       2.66666667      19.92820323        0
O        2.66666667       0.00000000      18.92820323        0
H        2.66666667       0.00000000      19.92820323        0
O        2.66666667       1.33333333      18.92820323        0
H        2.66666667       1.33333333      19.92820323        0
O        2.66666667       2.66666667      18.92820323        0
H        2.66666667       2.66666667      19.92820323        0
O       10.57700000       6.21130000      21.92870323        0
O       10.75990000       8.46180000      21.92760323        0
O        3.59820000       6.87450000      21.92820323        0
C        8.58370000       7.50600000      21.92890323        0
C        5.80320000       7.73240000      21.92720323        0
C        7.98650000       8.76660000      21.92870323        0
C        7.79060000       6.35870000      21.92820323        0
C        6.59620000       8.87980000      21.92800323        0
C        6.40030000       6.47170000      21.92740323        0
C       10.05060000       7.38680000      21.92820323        0
C        4.35390000       7.85040000      21.92920323        0
H        8.57800000       9.67810000      21.92900323        0
H        8.22700000       5.36350000      21.92820323        0
H        6.14550000       9.86890000      21.92840323        0
H        5.80200000       5.56440000      21.92720323        0
H        3.94020000       8.87320000      21.93070323        0
