52
Lattice="7.0453 0.0 0.0 -3.5226499999999983 6.101408777282507 0.0 0.0 0.0 9.5608" Properties=species:S:1:pos:R:3:spacegroup_kinds:I:1 spacegroup="P 32" unit_cell=conventional occupancy="_JSON {\"0\": {\"B\": 1}, \"1\": {\"B\": 1}, \"2\": {\"O\": 1}, \"3\": {\"O\": 1}, \"4\": {\"O\": 1}, \"5\": {\"O\": 1}, \"6\": {\"O\": 1}, \"7\": {\"O\": 1}, \"8\": {\"H\": 1}, \"9\": {\"H\": 1}, \"10\": {\"H\": 1}, \"11\": {\"H\": 1}, \"12\": {\"H\": 1}, \"13\": {\"H\": 1}}" pbc="T T T"
B       -0.96133118       3.90673204       2.72387192        0
B        0.61998640       3.31550553       9.09773859        0
B        0.34134479       4.98057998       5.91080525        0
B        2.56836412       1.87252235       2.83382112        1
B        4.13946602       1.28800739       9.20768779        1
B        3.86011987       2.94087903       6.02075445        1
O       -2.16678201       4.51077151       2.68180440        2
O        0.69959829       1.96953475       9.05567107        2
O        1.46718373       5.72251129       5.86873773        2
O       -0.86903775       2.55954098       2.68467264        3
O        1.74054137       4.06902951       9.05853931        3
O       -0.87150361       5.57424706       5.87160597        3
O        0.18670045       4.66757771       2.74299352        4
O       -0.61294110       3.92930725       9.11686019        4
O        0.42624065       3.60593259       5.92992685        4
O        3.79424632       1.28312627       2.80035832        5
O        4.03695690       2.64435056       9.17422499        5
O        2.73674679       2.17393195       5.98729165        5
O        1.43301402       1.11777809       2.86632784        6
O        5.36076877       0.68213750       9.24019451        6
O        3.77416721       4.30149319       6.05326117        6
O        2.45810517       3.23008581       2.77645632        7
O        3.01891105       0.51373862       9.15032299        7
O        5.09093378       2.35758435       5.96338965        7
H       -2.15233915       5.35093550       3.02121280        8
H       -0.03522650       1.56196065       9.39507947        8
H        2.18756565       5.28992141       6.20814613        8
H        5.37204125       2.20260857       2.97340880        9
H        2.45176440       3.55101991       9.34727547        9
H        2.74414435       0.34778030       6.16034213        9
H        0.95463815       4.24047910       2.97340880       10
H       -0.62703170       4.80791012       9.34727547       10
H       -0.32760645       3.15442834       6.16034213       10
H        3.70935045       0.46980848       3.18374640       11
H        4.78375870       2.97748748       9.55761307       11
H        2.07484085       2.65411282       6.37067973       11
H        0.74680180       1.67178600       3.09769920       12
H        1.70143995       5.91226511       9.47156587       12
H       -2.44824175       4.61876644       6.28463253       12
H        3.19856620       3.67304808       3.04033440       13
H        2.26506395       0.93351554       9.41420107       13
H        5.10431985       1.49484515       6.22726773       13
O        3.60850000      -0.57960000      -0.14880000        0
O        6.39150000      -0.57960000       0.14880000        0
C        4.30210000       0.57960000       0.29670000        0
C        5.69790000       0.57960000      -0.29660000        0
H        3.73960000       1.46810000      -0.00400000        0
H        4.34370000       0.53560000       1.38900000        0
H        6.25790000       1.46250000       0.02370000        0
H        5.66830000       0.55400000      -1.39040000        0
H        3.55450000      -0.53400000      -1.11860000        0
H        5.87730000      -1.35460000      -0.13550000        0
