10
Properties=species:S:1:pos:R:3 pbc="F F F"
O       -1.39150000      -0.57960000      -0.14880000
O        1.39150000      -0.57960000       0.14880000
C       -0.69790000       0.57960000       0.29670000
C        0.69790000       0.57960000      -0.29660000
H       -1.26040000       1.46810000      -0.00400000
H       -0.65630000       0.53560000       1.38900000
H        1.25790000       1.46250000       0.02370000
H        0.66830000       0.55400000      -1.39040000
H       -1.44550000      -0.53400000      -1.11860000
H        0.87730000      -1.35460000      -0.13550000
